
Gurobi 10.0.2 (linux64) logging started Sun 21 Jul 2024 05:53:14 AM -05

Set parameter LogFile to value "gurobi.log"
Gurobi Optimizer version 10.0.2 build v10.0.2rc0 (linux64)

CPU model: Intel(R) Core(TM) i5-1035G1 CPU @ 1.00GHz, instruction set [SSE2|AVX|AVX2|AVX512]
Thread count: 4 physical cores, 8 logical processors, using up to 8 threads

Academic license 2446675 - for non-commercial use only - registered to mi___@epn.edu.ec
Optimize a model with 12108 rows, 11201 columns and 603798 nonzeros
Model fingerprint: 0xad0004f8
Variable types: 0 continuous, 11201 integer (6654 binary)
Coefficient statistics:
  Matrix range     [5e-01, 1e+04]
  Objective range  [1e+00, 1e+00]
  Bounds range     [1e+00, 2e+04]
  RHS range        [1e+00, 2e+04]
Presolve removed 4206 rows and 2317 columns
Presolve time: 0.80s
Presolved: 7902 rows, 8884 columns, 111439 nonzeros
Variable types: 0 continuous, 8884 integer (5822 binary)

Root relaxation: objective 5.810000e+05, 3806 iterations, 0.22 seconds (0.38 work units)

    Nodes    |    Current Node    |     Objective Bounds      |     Work
 Expl Unexpl |  Obj  Depth IntInf | Incumbent    BestBd   Gap | It/Node Time

     0     0 581000.000    0   74          - 581000.000      -     -    1s
H    0     0                    580850.00000 581000.000  0.03%     -    1s
     0     0 581000.000    0  391 580850.000 581000.000  0.03%     -    2s
H    0     0                    581000.00000 581000.000  0.00%     -    2s
     0     0 581000.000    0  331 581000.000 581000.000  0.00%     -    2s

Cutting planes:
  Implied bound: 136
  MIR: 5
  StrongCG: 2
  Flow cover: 12
  GUB cover: 1
  RLT: 1
  Relax-and-lift: 1

Explored 1 nodes (11153 simplex iterations) in 2.15 seconds (2.96 work units)
Thread count was 8 (of 8 available processors)

Solution count 2: 581000 580850 

Optimal solution found (tolerance 1.00e-04)
Best objective 5.810000000000e+05, best bound 5.810000000000e+05, gap 0.0000%
